(declare-fun e () String)
(declare-fun g () String)
(declare-fun b () String)
(declare-fun d () String)
(declare-fun f () String)
(declare-fun a () String)
(assert (= b g))
(assert (= (str.++ "fa" a d "b") (str.++ f f d b e)))
(assert (= (str.++ "ffhgg" g) e))

(check-sat)
